NAME : random1249635
COMMENT: random generated with id 1249635
TYPE : TSP
DIMENSION : 34
EDGE_WEIGHT_TYPE : EUC_2D
NODE_COORD_SECTION
1 7.132792 8.389714
2 6.253138 1.750396
3 13.936066 6.514772
4 5.823865 17.743484
5 11.183232 9.164222
6 18.147125 5.445059
7 7.924297 0.328856
8 6.799927 9.730453
9 14.971117 16.995221
10 12.903023 9.102387
11 11.757535 10.288071
12 9.843710 9.704755
13 15.630041 2.612862
14 14.613555 13.898991
15 5.833787 16.516405
16 0.076275 12.966579
17 4.906119 6.329413
18 14.716975 18.842185
19 12.844185 0.540840
20 16.585669 4.027416
21 9.705062 14.732795
22 9.472476 17.629359
23 15.061650 16.272403
24 7.359812 10.032767
25 13.267623 0.262835
26 19.135154 5.025159
27 10.550906 8.978864
28 14.729913 6.180947
29 11.591726 9.343468
30 0.079937 17.425513
31 5.859874 0.156212
32 10.392092 10.765993
33 6.485625 5.109067
34 9.608178 19.329809
EOF
